BAYES
225
2 2 2 2 2 2 2 2 2 2 2 2 2 2 2 2 2 2 2 2 2 2 2 2 2 2 2 2 2 2 2 2 2 2 2 2 2 2 2 2 2 2 2 2 2 2 2 2 2 2 2 2 2 2 2 2 2 2 2 2 2 2 2 2 2 2 2 2 2 2 2 2 2 2 2 2 2 2 2 2 2 2 2 2 2 2 2 2 2 2 2 2 2 2 2 2 2 2 2 2 2 2 2 2 2 2 2 2 2 2 2 2 2 2 2 2 2 2 2 2 2 2 2 2 2 2 2 2 2 2 2 2 2 2 2 2 2 2 2 2 2 2 2 2 2 2 2 2 2 2 2 2 2 2 2 2 2 2 2 2 2 2 2 2 2 2 2 2 2 2 2 2 2 2 2 2 2 2 2 2 2 2 2 2 2 2 2 2 2 2 2 2 2 2 2 2 2 2 2 2 2 2 2 2 2 2 2 2 2 2 2 2 2 2 2 2 2 2 2 2 2 2 2 2 2
225
1 0
2 0 1
2 1 2
2 2 3
2 3 4
2 4 5
2 5 6
2 6 7
2 7 8
2 8 9
2 9 10
2 10 11
2 11 12
2 12 13
2 13 14
2 0 15
3 1 15 16
3 2 16 17
3 3 17 18
3 4 18 19
3 5 19 20
3 6 20 21
3 7 21 22
3 8 22 23
3 9 23 24
3 10 24 25
3 11 25 26
3 12 26 27
3 13 27 28
3 14 28 29
2 15 30
3 16 30 31
3 17 31 32
3 18 32 33
3 19 33 34
3 20 34 35
3 21 35 36
3 22 36 37
3 23 37 38
3 24 38 39
3 25 39 40
3 26 40 41
3 27 41 42
3 28 42 43
3 29 43 44
2 30 45
3 31 45 46
3 32 46 47
3 33 47 48
3 34 48 49
3 35 49 50
3 36 50 51
3 37 51 52
3 38 52 53
3 39 53 54
3 40 54 55
3 41 55 56
3 42 56 57
3 43 57 58
3 44 58 59
2 45 60
3 46 60 61
3 47 61 62
3 48 62 63
3 49 63 64
3 50 64 65
3 51 65 66
3 52 66 67
3 53 67 68
3 54 68 69
3 55 69 70
3 56 70 71
3 57 71 72
3 58 72 73
3 59 73 74
2 60 75
3 61 75 76
3 62 76 77
3 63 77 78
3 64 78 79
3 65 79 80
3 66 80 81
3 67 81 82
3 68 82 83
3 69 83 84
3 70 84 85
3 71 85 86
3 72 86 87
3 73 87 88
3 74 88 89
2 75 90
3 76 90 91
3 77 91 92
3 78 92 93
3 79 93 94
3 80 94 95
3 81 95 96
3 82 96 97
3 83 97 98
3 84 98 99
3 85 99 100
3 86 100 101
3 87 101 102
3 88 102 103
3 89 103 104
2 90 105
3 91 105 106
3 92 106 107
3 93 107 108
3 94 108 109
3 95 109 110
3 96 110 111
3 97 111 112
3 98 112 113
3 99 113 114
3 100 114 115
3 101 115 116
3 102 116 117
3 103 117 118
3 104 118 119
2 105 120
3 106 120 121
3 107 121 122
3 108 122 123
3 109 123 124
3 110 124 125
3 111 125 126
3 112 126 127
3 113 127 128
3 114 128 129
3 115 129 130
3 116 130 131
3 117 131 132
3 118 132 133
3 119 133 134
2 120 135
3 121 135 136
3 122 136 137
3 123 137 138
3 124 138 139
3 125 139 140
3 126 140 141
3 127 141 142
3 128 142 143
3 129 143 144
3 130 144 145
3 131 145 146
3 132 146 147
3 133 147 148
3 134 148 149
2 135 150
3 136 150 151
3 137 151 152
3 138 152 153
3 139 153 154
3 140 154 155
3 141 155 156
3 142 156 157
3 143 157 158
3 144 158 159
3 145 159 160
3 146 160 161
3 147 161 162
3 148 162 163
3 149 163 164
2 150 165
3 151 165 166
3 152 166 167
3 153 167 168
3 154 168 169
3 155 169 170
3 156 170 171
3 157 171 172
3 158 172 173
3 159 173 174
3 160 174 175
3 161 175 176
3 162 176 177
3 163 177 178
3 164 178 179
2 165 180
3 166 180 181
3 167 181 182
3 168 182 183
3 169 183 184
3 170 184 185
3 171 185 186
3 172 186 187
3 173 187 188
3 174 188 189
3 175 189 190
3 176 190 191
3 177 191 192
3 178 192 193
3 179 193 194
2 180 195
3 181 195 196
3 182 196 197
3 183 197 198
3 184 198 199
3 185 199 200
3 186 200 201
3 187 201 202
3 188 202 203
3 189 203 204
3 190 204 205
3 191 205 206
3 192 206 207
3 193 207 208
3 194 208 209
2 195 210
3 196 210 211
3 197 211 212
3 198 212 213
3 199 213 214
3 200 214 215
3 201 215 216
3 202 216 217
3 203 217 218
3 204 218 219
3 205 219 220
3 206 220 221
3 207 221 222
3 208 222 223
3 209 223 224

2
0.165869 0.834131
4
0.0 1.0 1.0 0.0
4
0.0 1.0 1.0 0.0
4
0.366893 0.633107 0.673414 0.326586
4
0.422276 0.577724 0.759009 0.240991
4
0.0 1.0 1.0 0.0
4
0.0 1.0 1.0 0.0
4
0.00130581 0.998694 0.791707 0.208293
4
0.948993 0.0510073 0.09519 0.90481
4
0.804826 0.195174 0.245439 0.754561
4
0.020604 0.979396 0.215929 0.784071
4
1.0 0.0 0.0 1.0
4
0.0 1.0 1.0 0.0
4
0.0 1.0 1.0 0.0
4
0.0 1.0 1.0 0.0
4
0.92708 0.0729203 0.0265198 0.97348
8
0.0 1.0 1.0 0.0 1.0 0.0 0.0 1.0
8
0.270003 0.729997 0.977222 0.0227785 0.759919 0.240081 0.271309 0.728691
8
0.363259 0.636741 0.220302 0.779698 0.864119 0.135881 0.0816658 0.918334
8
1.0 0.0 1.0 0.0 0.0 1.0 1.0 0.0
8
1.0 0.0 1.0 0.0 0.0 1.0 1.0 0.0
8
1.0 0.0 0.0 1.0 0.0 1.0 0.0 1.0
8
0.728484 0.271516 0.4447 0.5553 0.818719 0.181281 0.701133 0.298867
8
1.0 0.0 1.0 0.0 0.0 1.0 1.0 0.0
8
0.0 1.0 1.0 0.0 1.0 0.0 1.0 0.0
8
0.420959 0.579041 0.150241 0.849759 0.651193 0.348807 0.746446 0.253554
8
0.0 1.0 1.0 0.0 1.0 0.0 1.0 0.0
8
1.0 0.0 0.0 1.0 0.0 1.0 1.0 0.0
8
1.0 0.0 0.0 1.0 1.0 0.0 1.0 0.0
8
0.434603 0.565397 0.981296 0.0187039 0.792192 0.207808 0.794634 0.205366
4
0.0 1.0 1.0 0.0
8
0.0 1.0 1.0 0.0 1.0 0.0 0.0 1.0
8
0.631621 0.368379 0.907387 0.0926133 0.990444 0.00955559 0.377624 0.622376
8
0.0 1.0 0.0 1.0 1.0 0.0 1.0 0.0
8
1.0 0.0 0.0 1.0 0.0 1.0 0.0 1.0
8
1.0 0.0 0.0 1.0 1.0 0.0 0.0 1.0
8
0.0 1.0 1.0 0.0 0.0 1.0 1.0 0.0
8
0.623437 0.376563 0.638919 0.361081 0.371902 0.628098 0.603865 0.396135
8
0.208879 0.791121 0.235486 0.764514 0.707246 0.292754 0.199324 0.800676
8
0.902649 0.0973513 0.021383 0.978617 0.0464951 0.953505 0.312491 0.687509
8
0.505025 0.494975 0.458683 0.541317 0.316684 0.683316 0.984606 0.015394
8
0.0 1.0 1.0 0.0 1.0 0.0 1.0 0.0
8
0.605105 0.394895 0.462224 0.537776 0.110814 0.889186 0.853575 0.146425
8
0.0 1.0 0.0 1.0 1.0 0.0 1.0 0.0
8
1.0 0.0 0.0 1.0 1.0 0.0 1.0 0.0
4
0.929474 0.0705263 0.409835 0.590165
8
0.975969 0.0240312 0.722326 0.277674 0.32984 0.67016 0.480994 0.519006
8
1.0 0.0 0.0 1.0 1.0 0.0 1.0 0.0
8
0.0 1.0 1.0 0.0 0.0 1.0 0.0 1.0
8
0.130631 0.869369 0.922996 0.0770044 0.96458 0.0354201 0.926611 0.0733891
8
0.0 1.0 0.0 1.0 1.0 0.0 1.0 0.0
8
0.0 1.0 0.0 1.0 0.0 1.0 1.0 0.0
8
0.644807 0.355193 0.70269 0.29731 0.403948 0.596052 0.974647 0.025353
8
1.0 0.0 1.0 0.0 1.0 0.0 0.0 1.0
8
0.0448219 0.955178 0.362319 0.637681 0.911693 0.0883073 0.0646387 0.935361
8
0.0 1.0 0.0 1.0 0.0 1.0 1.0 0.0
8
1.0 0.0 1.0 0.0 1.0 0.0 0.0 1.0
8
1.0 0.0 0.0 1.0 1.0 0.0 1.0 0.0
8
0.16236 0.83764 0.379774 0.620226 0.462286 0.537714 0.566308 0.433692
8
0.0 1.0 0.0 1.0 0.0 1.0 1.0 0.0
4
1.0 0.0 0.0 1.0
8
0.0 1.0 0.0 1.0 0.0 1.0 1.0 0.0
8
0.0 1.0 1.0 0.0 1.0 0.0 1.0 0.0
8
0.0969361 0.903064 0.938239 0.0617609 0.188431 0.811569 0.305888 0.694112
8
0.221306 0.778694 0.786626 0.213374 0.360833 0.639167 0.980902 0.0190978
8
0.740607 0.259393 0.443188 0.556812 0.515294 0.484706 0.0950277 0.904972
8
0.0 1.0 0.0 1.0 0.0 1.0 1.0 0.0
8
0.724492 0.275508 0.127414 0.872586 0.474492 0.525508 0.129208 0.870792
8
0.647386 0.352614 0.729194 0.270806 0.168803 0.831197 0.29997 0.70003
8
0.0 1.0 1.0 0.0 1.0 0.0 1.0 0.0
8
0.0151649 0.984835 0.531345 0.468655 0.48942 0.51058 0.375998 0.624002
8
0.438406 0.561594 0.116605 0.883395 0.955436 0.0445639 0.9537 0.0462999
8
0.0 1.0 0.0 1.0 0.0 1.0 1.0 0.0
8
0.0 1.0 1.0 0.0 0.0 1.0 0.0 1.0
8
1.0 0.0 0.0 1.0 0.0 1.0 1.0 0.0
4
0.462963 0.537037 0.724653 0.275347
8
0.852261 0.147739 0.0346926 0.965307 0.620509 0.379491 0.867426 0.132574
8
0.109929 0.890071 0.243424 0.756576 0.0782856 0.921714 0.548335 0.451665
8
0.0 1.0 0.0 1.0 0.0 1.0 1.0 0.0
8
0.0 1.0 1.0 0.0 0.0 1.0 0.0 1.0
8
0.526326 0.473674 0.943539 0.0564613 0.356124 0.643876 0.747164 0.252836
8
0.959169 0.0408308 0.267972 0.732028 0.418405 0.581595 0.683822 0.316178
8
0.0 1.0 1.0 0.0 1.0 0.0 0.0 1.0
8
0.0 1.0 0.0 1.0 1.0 0.0 0.0 1.0
8
1.0 0.0 0.0 1.0 0.0 1.0 0.0 1.0
8
0.0 1.0 0.0 1.0 1.0 0.0 1.0 0.0
8
0.0 1.0 1.0 0.0 1.0 0.0 1.0 0.0
8
0.784343 0.215657 0.661455 0.338545 0.960419 0.0395813 0.468165 0.531835
8
0.231085 0.768915 0.18668 0.81332 0.653337 0.346663 0.369177 0.630823
8
1.0 0.0 1.0 0.0 1.0 0.0 0.0 1.0
4
0.0 1.0 1.0 0.0
8
0.0 1.0 0.0 1.0 1.0 0.0 1.0 0.0
8
0.636372 0.363628 0.0925586 0.907441 0.330748 0.669252 0.105422 0.894578
8
0.91732 0.0826803 0.930596 0.0694042 0.13236 0.86764 0.459334 0.540666
8
0.793815 0.206185 0.419752 0.580248 0.183104 0.816896 0.640957 0.359043
8
0.369785 0.630215 0.294295 0.705705 0.0200144 0.979986 0.841018 0.158982
8
0.770708 0.229292 0.67509 0.32491 0.897677 0.102323 0.262948 0.737052
8
0.898092 0.101908 0.0683936 0.931606 0.611233 0.388767 0.987296 0.0127045
8
0.0 1.0 0.0 1.0 0.0 1.0 1.0 0.0
8
0.872395 0.127605 0.547015 0.452985 0.659685 0.340315 0.00475542 0.995245
8
0.0 1.0 1.0 0.0 0.0 1.0 0.0 1.0
8
0.0 1.0 1.0 0.0 0.0 1.0 0.0 1.0
8
0.867661 0.132339 0.443621 0.556379 0.495256 0.504744 0.130608 0.869392
8
1.0 0.0 1.0 0.0 0.0 1.0 1.0 0.0
8
0.0 1.0 1.0 0.0 0.0 1.0 0.0 1.0
4
0.245874 0.754126 0.436236 0.563764
8
0.0 1.0 0.0 1.0 1.0 0.0 0.0 1.0
8
1.0 0.0 1.0 0.0 1.0 0.0 0.0 1.0
8
1.0 0.0 1.0 0.0 0.0 1.0 1.0 0.0
8
0.0 1.0 0.0 1.0 1.0 0.0 1.0 0.0
8
0.0893782 0.910622 0.479809 0.520191 0.0345505 0.96545 0.0936896 0.90631
8
0.923771 0.0762287 0.82709 0.17291 0.0991619 0.900838 0.360007 0.639993
8
0.0 1.0 0.0 1.0 1.0 0.0 0.0 1.0
8
0.313324 0.686676 0.887719 0.112281 0.616902 0.383098 0.566275 0.433725
8
0.0 1.0 1.0 0.0 1.0 0.0 0.0 1.0
8
1.0 0.0 0.0 1.0 0.0 1.0 1.0 0.0
8
0.642332 0.357668 0.0438974 0.956103 0.330219 0.669781 0.676882 0.323118
8
0.0 1.0 0.0 1.0 1.0 0.0 0.0 1.0
8
0.184854 0.815146 0.632461 0.367539 0.763253 0.236747 0.17274 0.82726
8
0.0 1.0 0.0 1.0 1.0 0.0 0.0 1.0
4
1.0 0.0 0.0 1.0
8
0.640094 0.359906 0.95984 0.0401595 0.280627 0.719373 0.692953 0.307047
8
1.0 0.0 1.0 0.0 0.0 1.0 1.0 0.0
8
1.0 0.0 1.0 0.0 1.0 0.0 0.0 1.0
8
1.0 0.0 0.0 1.0 0.0 1.0 1.0 0.0
8
0.0 1.0 1.0 0.0 1.0 0.0 0.0 1.0
8
0.0 1.0 0.0 1.0 0.0 1.0 1.0 0.0
8
0.110362 0.889638 0.681543 0.318457 0.535349 0.464651 0.315987 0.684013
8
0.0956086 0.904391 0.476132 0.523868 0.314332 0.685668 0.2982 0.7018
8
0.386152 0.613848 0.177673 0.822327 0.0218031 0.978197 0.641479 0.358521
8
0.328109 0.671891 0.179475 0.820525 0.098588 0.901412 0.819269 0.180731
8
0.0 1.0 0.0 1.0 1.0 0.0 1.0 0.0
8
0.672921 0.327079 0.631204 0.368796 0.835434 0.164566 0.823443 0.176557
8
0.0 1.0 1.0 0.0 0.0 1.0 0.0 1.0
8
1.0 0.0 0.0 1.0 1.0 0.0 0.0 1.0
4
1.0 0.0 0.0 1.0
8
0.427901 0.572099 0.628357 0.371643 0.44246 0.55754 0.756011 0.243989
8
0.541048 0.458952 0.57528 0.42472 0.157764 0.842236 0.843677 0.156323
8
1.0 0.0 1.0 0.0 0.0 1.0 1.0 0.0
8
1.0 0.0 0.0 1.0 1.0 0.0 1.0 0.0
8
1.0 0.0 0.0 1.0 1.0 0.0 0.0 1.0
8
0.0 1.0 0.0 1.0 0.0 1.0 1.0 0.0
8
0.664217 0.335783 0.560915 0.439085 0.705501 0.294499 0.472049 0.527951
8
1.0 0.0 0.0 1.0 1.0 0.0 0.0 1.0
8
0.0 1.0 0.0 1.0 0.0 1.0 1.0 0.0
8
0.927915 0.0720854 0.594795 0.405205 0.762671 0.237329 0.0676888 0.932311
8
0.180693 0.819307 0.457255 0.542745 0.204912 0.795088 0.907501 0.0924986
8
0.253893 0.746107 0.241296 0.758704 0.0943349 0.905665 0.289753 0.710247
8
1.0 0.0 1.0 0.0 0.0 1.0 0.0 1.0
8
0.0 1.0 0.0 1.0 1.0 0.0 1.0 0.0
4
0.0 1.0 1.0 0.0
8
0.40015 0.59985 0.117196 0.882804 0.845379 0.154621 0.957978 0.0420223
8
1.0 0.0 1.0 0.0 1.0 0.0 0.0 1.0
8
0.570055 0.429945 0.401743 0.598257 0.808843 0.191157 0.142801 0.857199
8
0.0501395 0.949861 0.237135 0.762865 0.94539 0.0546102 0.40989 0.59011
8
0.0 1.0 1.0 0.0 0.0 1.0 0.0 1.0
8
0.0 1.0 1.0 0.0 0.0 1.0 0.0 1.0
8
0.0202329 0.979767 0.829884 0.170116 0.893659 0.106341 0.865612 0.134388
8
0.938769 0.0612307 0.305787 0.694213 0.50851 0.49149 0.0515687 0.948431
8
0.409852 0.590148 0.621623 0.378377 0.904362 0.0956383 0.218696 0.781304
8
0.559998 0.440002 0.268835 0.731165 0.0015594 0.998441 0.505388 0.494612
8
0.28252 0.71748 0.404748 0.595252 0.0092798 0.99072 0.312807 0.687193
8
0.362462 0.637538 0.373202 0.626798 0.111339 0.888661 0.683912 0.316088
8
0.887802 0.112198 0.704145 0.295855 0.632818 0.367182 0.78146 0.21854
8
0.42068 0.57932 0.72023 0.27977 0.875544 0.124456 0.92919 0.0708102
4
0.378163 0.621837 0.339042 0.660958
8
0.0 1.0 0.0 1.0 1.0 0.0 0.0 1.0
8
0.159405 0.840595 0.347911 0.652089 0.505298 0.494702 0.441925 0.558075
8
0.514578 0.485422 0.754732 0.245268 0.482786 0.517214 0.87704 0.12296
8
0.0 1.0 1.0 0.0 0.0 1.0 0.0 1.0
8
0.0 1.0 1.0 0.0 0.0 1.0 0.0 1.0
8
0.710399 0.289601 0.913557 0.0864432 0.755414 0.244586 0.0885614 0.911439
8
1.0 0.0 0.0 1.0 0.0 1.0 0.0 1.0
8
1.0 0.0 0.0 1.0 0.0 1.0 1.0 0.0
8
0.314178 0.685822 0.656786 0.343214 0.662743 0.337257 0.796964 0.203036
8
0.790677 0.209323 0.391089 0.608911 0.0947786 0.905221 0.721546 0.278454
8
0.359876 0.640124 0.285233 0.714767 0.136402 0.863598 0.19473 0.80527
8
1.0 0.0 1.0 0.0 0.0 1.0 0.0 1.0
8
0.435756 0.564244 0.0242682 0.975732 0.364776 0.635224 0.246093 0.753907
8
0.0 1.0 1.0 0.0 0.0 1.0 0.0 1.0
4
0.0 1.0 1.0 0.0
8
0.0 1.0 0.0 1.0 1.0 0.0 0.0 1.0
8
0.0 1.0 1.0 0.0 1.0 0.0 1.0 0.0
8
0.165246 0.834754 0.651551 0.348449 0.865207 0.134793 0.434846 0.565154
8
0.770336 0.229664 0.618003 0.381997 0.647001 0.352999 0.764026 0.235974
8
1.0 0.0 1.0 0.0 0.0 1.0 1.0 0.0
8
0.182854 0.817146 0.799254 0.200746 0.84709 0.15291 0.208065 0.791935
8
0.301171 0.698829 0.890062 0.109938 0.872091 0.127909 0.552217 0.447783
8
0.0 1.0 0.0 1.0 1.0 0.0 1.0 0.0
8
0.0869641 0.913036 0.0758173 0.924183 0.361051 0.638949 0.952172 0.0478285
8
0.13262 0.86738 0.722507 0.277493 0.128667 0.871333 0.779621 0.220379
8
0.0 1.0 1.0 0.0 1.0 0.0 0.0 1.0
8
1.0 0.0 0.0 1.0 1.0 0.0 0.0 1.0
8
0.756665 0.243335 0.470781 0.529219 0.763259 0.236741 0.628756 0.371244
8
0.0 1.0 1.0 0.0 1.0 0.0 1.0 0.0
4
0.92685 0.0731498 0.372594 0.627406
8
0.287902 0.712098 0.324766 0.675234 0.156367 0.843633 0.420522 0.579478
8
0.0 1.0 1.0 0.0 1.0 0.0 0.0 1.0
8
0.14914 0.85086 0.949737 0.0502631 0.104143 0.895857 0.471661 0.528339
8
0.356507 0.643493 0.64127 0.35873 0.488066 0.511934 0.113173 0.886827
8
1.0 0.0 1.0 0.0 0.0 1.0 1.0 0.0
8
1.0 0.0 0.0 1.0 1.0 0.0 0.0 1.0
8
0.616833 0.383167 0.567152 0.432848 0.103458 0.896542 0.7732 0.2268
8
0.150731 0.849269 0.058233 0.941767 0.187817 0.812183 0.684538 0.315462
8
0.838851 0.161149 0.833678 0.166322 0.475429 0.524571 0.942994 0.0570058
8
0.0 1.0 0.0 1.0 1.0 0.0 1.0 0.0
8
1.0 0.0 0.0 1.0 1.0 0.0 1.0 0.0
8
0.555847 0.444153 0.546111 0.453889 0.356254 0.643746 0.526977 0.473023
8
0.134946 0.865054 0.14381 0.85619 0.392512 0.607488 0.238404 0.761596
8
0.380186 0.619814 0.389135 0.610865 0.975242 0.0247579 0.568002 0.431998
4
1.0 0.0 0.0 1.0
8
1.0 0.0 0.0 1.0 1.0 0.0 0.0 1.0
8
0.0 1.0 0.0 1.0 1.0 0.0 0.0 1.0
8
1.0 0.0 1.0 0.0 0.0 1.0 0.0 1.0
8
0.957781 0.0422187 0.781123 0.218877 0.29945 0.70055 0.783142 0.216858
8
0.44326 0.55674 0.175654 0.824346 0.154472 0.845528 0.360269 0.639731
8
0.543608 0.456392 0.335511 0.664489 0.123842 0.876158 0.617281 0.382719
8
0.530695 0.469305 0.524632 0.475368 0.812809 0.187191 0.880543 0.119457
8
0.879471 0.120529 0.529891 0.470109 0.896621 0.103379 0.524496 0.475504
8
0.11458 0.88542 0.99921 0.000790189 0.808541 0.191459 0.526251 0.473749
8
1.0 0.0 1.0 0.0 0.0 1.0 0.0 1.0
8
1.0 0.0 0.0 1.0 0.0 1.0 1.0 0.0
8
0.998668 0.00133212 0.81935 0.18065 0.0195041 0.980496 0.12251 0.87749
8
1.0 0.0 0.0 1.0 1.0 0.0 0.0 1.0
8
0.698585 0.301415 0.54823 0.45177 0.0636391 0.936361 0.595205 0.404795